************************************************************************
file with basedata            : mm21_.bas
initial value random generator: 14598
************************************************************************
projects                      :  1
jobs (incl. supersource/sink ):  12
horizon                       :  71
RESOURCES
  - renewable                 :  2   R
  - nonrenewable              :  2   N
  - doubly constrained        :  0   D
************************************************************************
PROJECT INFORMATION:
pronr.  #jobs rel.date duedate tardcost  MPM-Time
    1     10      0       17        3       17
************************************************************************
PRECEDENCE RELATIONS:
jobnr.    #modes  #successors   successors
   1        1          3           2   3   4
   2        3          3           5   9  10
   3        3          2           6   7
   4        3          1           6
   5        3          1           8
   6        3          2           9  11
   7        3          2           8   9
   8        3          1          11
   9        3          1          12
  10        3          1          12
  11        3          1          12
  12        1          0        
************************************************************************
REQUESTS/DURATIONS:
jobnr. mode duration  R 1  R 2  N 1  N 2
------------------------------------------------------------------------
  1      1     0       0    0    0    0
  2      1     1       7    0    9    1
         2     4       0    2    9    1
         3     7       0    2    6    1
  3      1     5       0    6    4    8
         2     5       9    0    5    9
         3     7       0    6    1    7
  4      1     4       4    0    6    8
         2     5       3    0    6    8
         3     6       0    5    4    5
  5      1     5       5    0    4    8
         2     6       4    0    3    5
         3     8       3    0    3    2
  6      1     2       0    7    8    9
         2     4       6    0    5    5
         3     6       0    6    3    1
  7      1     8       3    0    3    4
         2    10       2    0    3    2
         3    10       0    5    3    3
  8      1     3       8    0    7    6
         2     6       7    0    7    6
         3     9       7    0    5    4
  9      1     1       0    6    9    5
         2     3       4    0    8    3
         3     6       0    1    8    2
 10      1     3       5    0    7    6
         2     3       0   10    6    4
         3     3       0    4    6    7
 11      1     1       3    0    8    9
         2     5       1    0    6    7
         3     9       0    5    1    5
 12      1     0       0    0    0    0
************************************************************************
RESOURCEAVAILABILITIES:
  R 1  R 2  N 1  N 2
   18   15   45   40
************************************************************************
MAXIMAL LAGS:
from  to  type  delay
    1   12   ES      0
    1    2   ES      0
    2   12   ES      0
    1    3   ES      0
    3   12   ES      0
    1    4   ES      0
    4   12   ES      0
    1    5   ES      0
    5   12   ES      0
    1    6   ES      0
    6   12   ES      0
    1    7   ES      0
    7   12   ES      0
    1    8   ES      0
    8   12   ES      0
    1    9   ES      0
    9   12   ES      0
    1   10   ES      0
   10   12   ES      0
    1   11   ES      0
   11   12   ES      0
    1   12   ES      0
    2    5   SS      5
    2    5   SE     11
    2    5   ES     11
    2    5   EE      5
    2    9   SS     -4
    2    9   SE      9
    2    9   ES     -3
    2    9   EE     -3
    2   10   SS     -5
    2   10   SE     -9
    2   10   ES    -11
    2   10   EE      0
    3    6   SS      6
    3    6   SE      5
    3    6   ES      3
    3    6   EE     -8
    3    7   SS    -11
    3    7   SE     -1
    3    7   ES    -12
    3    7   EE      1
    4    6   SS    -10
    4    6   SE     -3
    4    6   ES      9
    4    6   EE      8
    5    8   SS      7
    5    8   SE      3
    5    8   ES     -6
    5    8   EE     -9
    6    9   SS    -12
    6    9   SE     -6
    6    9   ES     -7
    6    9   EE      8
    6   11   SS     -3
    6   11   SE    -10
    6   11   ES      3
    6   11   EE     -9
    7    8   SS     -3
    7    8   SE      0
    7    8   ES      3
    7    8   EE      3
    7    9   SS      9
    7    9   SE     -4
    7    9   ES    -10
    7    9   EE      8
    8   11   SS      5
    8   11   SE      0
    8   11   ES     -7
    8   11   EE     -1
************************************************************************
